
Gurobi 11.0.3 (linux64) logging started Sat Nov 23 03:50:17 2024

Set parameter LogFile to value "/home/yihong/Coding/OR_SUC/SUC_results_bigM100000_thread4/case24_ieee_rts_theta0.1_epsilon0.025_gurobi_seed930000_num_gen100_N_WDR100_load_scaling_factor1_proposed_T28quadra_cost.txt"
Set parameter TimeLimit to value 3600
Gurobi Optimizer version 11.0.3 build v11.0.3rc0 (linux64 - "Ubuntu 20.04.6 LTS")

CPU model: AMD EPYC 7532 32-Core Processor, instruction set [SSE2|AVX|AVX2]
Thread count: 64 physical cores, 128 logical processors, using up to 4 threads

Optimize a model with 60682 rows, 34821 columns and 827226 nonzeros
Model fingerprint: 0x75234269
Model has 2800 quadratic constraints
Variable types: 32021 continuous, 2800 integer (2800 binary)
Coefficient statistics:
  Matrix range     [3e-04, 2e+03]
  QMatrix range    [2e-03, 8e-03]
  QLMatrix range   [1e-01, 6e+01]
  Objective range  [1e+00, 1e+00]
  Bounds range     [1e+00, 1e+00]
  RHS range        [1e+00, 9e+03]
Presolve removed 49149 rows and 15028 columns
Presolve time: 0.33s
Presolved: 11533 rows, 19793 columns, 71657 nonzeros
Presolved model has 2800 quadratic constraint(s)
Variable types: 16993 continuous, 2800 integer (2800 binary)

Root relaxation: objective 4.323395e+04, 9086 iterations, 0.25 seconds (0.36 work units)

    Nodes    |    Current Node    |     Objective Bounds      |     Work
 Expl Unexpl |  Obj  Depth IntInf | Incumbent    BestBd   Gap | It/Node Time

H    0     0                    765259.03615 43233.9458  94.4%     -    0s
*    0     0               0    765259.03615 43233.9458  94.4%     -    0s
     0     0 379515.257    0 1045 765259.036 379515.257  50.4%     -    1s
     0     0 713995.837    0  630 765259.036 713995.837  6.70%     -    1s
     0     0 714120.273    0   99 765259.036 714120.273  6.68%     -    2s
     0     0 714282.570    0   92 765259.036 714282.570  6.66%     -    2s
     0     0 714285.164    0   92 765259.036 714285.164  6.66%     -    2s
     0     0 714285.164    0   92 765259.036 714285.164  6.66%     -    2s
     0     0 714287.031    0   92 765259.036 714287.031  6.66%     -    2s
     0     2 714287.031    0   92 765259.036 714287.031  6.66%     -    3s
    62    92 714307.140   13   63 765259.036 714290.864  6.66%  26.2    5s
H  255   432                    714416.39170 714292.383  0.02%  26.7    7s
*  255   432              85    714416.39170 714292.383  0.02%  26.7    7s

Cutting planes:
  Gomory: 11
  Lift-and-project: 9
  Implied bound: 240
  MIR: 58
  Flow cover: 265
  RLT: 339
  Relax-and-lift: 210

Explored 463 nodes (34612 simplex iterations) in 7.85 seconds (9.81 work units)
Thread count was 4 (of 128 available processors)

Solution count 3: 714416 714416 765259 

Optimal solution found (tolerance 1.00e-03)
Warning: max constraint violation (1.0099e-07) exceeds tolerance
Best objective 7.144163917036e+05, best bound 7.142923834013e+05, gap 0.0174%
